Maximize

1345.0 x_0 + 912.0 x_1 + 340.0 x_2 + 1172.0 x_3 + 1797.0 x_4 + 1652.0 x_5 + 1490.0 x_6 + 235.0 x_7 + 2085.0 x_8 + 462.0 x_9


Subject To

a0: 224 x_0 + 182 x_1 + 114 x_2 + 204 x_3 + 337 x_4 + 339 x_5 + 250 x_6 + 5 x_7 + 349 x_8 + 132 x_9 <= 1560
b0: 310 x_0 + 179 x_1 + 18 x_2 + 261 x_3 + 378 x_4 + 318 x_5 + 342 x_6 + 85 x_7 + 481 x_8 + 49 x_9 <= 1645



Bounds


x_0 <= 2
x_1 <= 3
x_2 <= 5
x_3 <= 2
x_4 <= 2
x_5 <= 2
x_6 <= 2
x_7 <= 5
x_8 <= 2
x_9 <= 4




General

 x_0 x_1 x_2 x_3 x_4 x_5 x_6 x_7 x_8 x_9



End
